solution status: optimal solution found
objective value:                           11695.2965
x18                                                 1 	(obj:100.871)
x30                                                 1 	(obj:357.712)
x34                                                 1 	(obj:1649.91)
x53                                                 1 	(obj:505.159)
x62                                                 1 	(obj:401.486)
x115                                                1 	(obj:129.502)
x129                                                1 	(obj:558.976)
x136                                                1 	(obj:93.1298)
x191                                                1 	(obj:274.375)
x204                                                1 	(obj:708.856)
x253                                                1 	(obj:335.181)
x256                                                1 	(obj:2027.29)
x280                                                1 	(obj:246.857)
x294                                                1 	(obj:197.055)
x321                                                1 	(obj:92.0181)
x371                                                1 	(obj:30.7137)
x457                                                1 	(obj:555.346)
x502                                                1 	(obj:396.66)
x520                                                1 	(obj:104.528)
x577                                                1 	(obj:472.827)
x636                                                1 	(obj:282.99)
x659                                                1 	(obj:213.327)
x770                                                1 	(obj:538.946)
x900                                                1 	(obj:597.262)
x903                                                1 	(obj:34.9749)
x934                                                1 	(obj:194.129)
x937                                                1 	(obj:101.356)
x963                                                1 	(obj:493.859)
